p cnf 15 58
-2 5 8 0
5 -8 -9 0
1 7 11 0
7 -8 14 0
1 -2 4 0
3 4 -10 0
-1 3 -9 0
2 -9 -13 0
4 -5 -7 0
4 7 -11 0
-5 7 13 0
3 -5 -15 0
4 -7 12 0
1 -5 -7 0
1 -10 15 0
3 -5 12 0
5 -11 -12 0
3 -9 -14 0
-4 6 -15 0
2 -8 -14 0
5 8 11 0
-5 -6 7 0
-4 5 -15 0
-5 9 -12 0
1 -2 14 0
6 -7 13 0
-11 13 -15 0
6 8 -12 0
5 13 14 0
3 9 -10 0
-3 6 -9 0
-1 2 7 0
3 6 -15 0
-5 -11 15 0
-6 9 10 0
5 -6 14 0
-1 5 8 0
5 -7 -9 0
1 4 -14 0
-1 8 -13 0
-3 6 -15 0
-2 6 -14 0
3 -14 15 0
10 -11 -13 0
-5 -10 15 0
-3 7 13 0
5 8 -10 0
6 -9 10 0
1 4 15 0
3 -7 9 0
-6 14 15 0
2 5 -6 0
-9 13 -14 0
-4 10 -11 0
2 11 -12 0
9 10 -15 0
-8 -13 -14 0
9 -10 15 0
